%chk=Anth1.chk
# opt freq hf/3-21g geom=connectivity

Title Card Required

0 1
 C                 -7.14249948   -2.88531837   -0.01291600
 C                 -5.77787648   -2.88531837   -0.01291600
 C                 -5.04498548   -1.65409737   -0.01291600
 C                 -5.76898248   -0.42235037   -0.01843400
 C                 -7.20122248   -0.46384137   -0.01973400
 C                 -7.86500548   -1.65613437   -0.01636300
 C                 -3.64608448   -1.63120837   -0.00802000
 C                 -5.06860548    0.78881663   -0.02015500
 C                 -3.66966448    0.81170063   -0.01453000
 C                 -2.94569548   -0.42000237   -0.00711000
 C                 -1.51351348   -0.37837837    0.00000000
 H                 -0.96764348   -1.33390537    0.00660100
 C                 -0.84977648    0.81397663    0.00104200
 C                 -1.57225948    2.04309163   -0.00713000
 C                 -2.93690248    2.04294663   -0.01449700
 H                 -3.08838148   -2.58044537   -0.00370100
 H                 -7.70837148   -3.82859637   -0.01051200
 H                 -5.20855048   -3.82705237   -0.00981000
 H                 -7.74703548    0.49170463   -0.02433800
 H                 -8.96440348   -1.69229937   -0.01779400
 H                 -5.62674448    1.73779763   -0.02442300
 H                  0.24962952    0.84988063    0.00720200
 H                 -1.00617948    2.98626863   -0.00603500
 H                 -3.50644548    2.98456363   -0.02076900

 1 2 2.0 6 1.5 17 1.0
 2 3 1.5 18 1.0
 3 4 1.5 7 1.5
 4 5 1.5 8 1.5
 5 6 2.0 19 1.0
 6 20 1.0
 7 10 1.5 16 1.0
 8 9 1.5 21 1.0
 9 10 1.5 15 1.5
 10 11 1.5
 11 12 1.0 13 2.0
 12
 13 14 1.5 22 1.0
 14 15 2.0 23 1.0
 15 24 1.0
 16
 17
 18
 19
 20
 21
 22
 23
 24

