%chk=Naph3.chk
# freq b3lyp/6-31g(d) scrf=check guess=read genchk geom=allcheck

Title Card Required

0 1
 C                 -2.41605100    0.70823700    0.00000100
 C                 -1.24270100    1.39259400   -0.00001100
 C                 -0.00000800    0.70468100    0.00000200
 C                 -0.00001000   -0.70468400    0.00000000
 C                 -1.24270500   -1.39259400   -0.00000100
 C                 -2.41605400   -0.70823400    0.00000600
 H                  1.24042900    2.46875300    0.00000100
 H                 -3.35194500    1.23795100    0.00000200
 H                 -1.24043500    2.46874600   -0.00001200
 C                  1.24271900    1.39260100    0.00000600
 C                  1.24271800   -1.39260100   -0.00000300
 H                 -1.24044100   -2.46874600    0.00000100
 H                 -3.35195000   -1.23794400    0.00000800
 C                  2.41604400   -0.70825100   -0.00000700
 C                  2.41604700    0.70825200    0.00000600
 H                  1.24044200   -2.46875200    0.00000300
 H                  3.35194900   -1.23794800   -0.00000500
 H                  3.35195400    1.23794200    0.00000600

