%chk=Naph1.chk
# freq=noraman am1 geom=connectivity

Title Card Required

0 1
 C                 -6.33380331   -0.65094884    0.00026300
 C                 -4.96100231   -0.65094884    0.00026300
 C                 -4.23906431    0.57417216    0.00026300
 C                 -4.95693431    1.79803816    0.00063300
 C                 -6.37835031    1.76866516    0.00078700
 C                 -7.04985531    0.57069016    0.00049700
 H                 -2.26999131   -0.35079284    0.00002000
 H                 -6.89453431   -1.59729484    0.00018300
 H                 -4.39621331   -1.59527084    0.00003500
 C                 -2.81733731    0.60371516    0.00000000
 C                 -4.23418431    3.02276416    0.00074800
 H                 -6.92559131    2.72312116    0.00086900
 H                 -8.14949231    0.54432316    0.00059900
 C                 -2.86132331    3.02283216    0.00047500
 C                 -2.14531131    1.80094016    0.00001600
 H                 -4.79864031    3.96730516    0.00100800
 H                 -2.30063131    3.96916316    0.00029700
 H                 -1.04568331    1.82740516   -0.00016600

 1 2 1.5 6 1.5 8 1.0
 2 3 1.5 9 1.0
 3 4 1.5 10 1.5
 4 5 1.5 11 1.5
 5 6 1.5 12 1.0
 6 13 1.0
 7 10 1.0
 8
 9
 10 15 1.5
 11 14 1.5 16 1.0
 12
 13
 14 15 1.5 17 1.0
 15 18 1.0
 16
 17
 18

