# opt freq b3lyp/6-311g geom=connectivity freq=readisotopes

Carbon Dioxide 13CO2

0 1
 C                  1.78378375    3.70270265    0.00000000
 O                  3.04218375    3.70270265   -0.00000000
 O                  0.52538375    3.70270265    0.00000000

 1 2 2.0 3 2.0
 2
 3

298.15 1.0
13
16
16